(set-info :smt-lib-version 2.6)
(set-logic UFNIRA)
(set-info :source |
Encoded by: Mirek Olšák
From a collection by: Vít Musil
Source url: https://prase.cz/library/FunkcionalniRovniceVM/FunkcionalniRovniceVM.pdf
Problem number: Cvičení 9
|)
(set-info :license "https://creativecommons.org/licenses/by-nc/4.0/")
(set-info :category "academic")
(set-info :status sat)

; Header
(declare-fun f (Real) Real)
(assert (forall ((x Real) (y Real)) (=> (distinct x y) (distinct (f x) (f y))))) ; injective

; Equations
(assert (forall ((x Real) (y Real)) (= (f (+ (f x) y)) (+ (+ (f (* x x)) (* (* 4.0 (f x)) y)) (* 2.0 (* y y))))))

; Find all possible f

(check-sat)
(get-model)
